331 332 333 339 338 337 336 335 334 283 284 285 286 287 280 281 282 279 278 288 289 290 277 276 275 274 273 292 291 293 294 295 296 270 268 269 272 271 267 266 265 264 263 262 261 260 259 258 299 298 297 321 320 319 317 318 305 306 304 303 302 301 300 257 256 255 253 254 252 251 250 249 248 241 242 243 244 245 247 246 238 239 240 508 507 506 237 236 235 234 232 233 231 230 229 228 227 189 225 226 190 191 192 193 219 218 220 221 222 224 223 217 216 215 214 213 212 211 210 209 194 195 196 197 205 206 207 208 203 204 202 201 200 199 198 184 183 185 186 188 187 540 538 539 537 536 484 485 483 482 481 480 479 478 477 476 475 567 566 565 564 563 562 561 560 549 548 545 546 547 544 543 541 542 107 108 109 110 111 112 113 161 160 162 168 169 171 170 172 173 174 175 176 177 178 182 179 181 180 166 167 163 164 165 154 155 156 159 158 157 153 147 148 152 149 150 151 142 143 146 145 144 141 140 139 136 135 134 133 132 131 130 137 129 128 116 114 115 117 126 127 125 124 138 69 70 68 67 66 65 75 74 73 72 71 123 122 121 120 119 118 106 105 104 103 102 100 101 551 550 559 558 557 556 554 553 552 99 98 96 95 97 94 89 88 77 76 64 63 60 61 62 78 79 80 81 59 58 57 82 83 56 55 53 54 52 50 51 84 85 86 87 90 93 92 91 555 45 46 47 48 49 43 44 42 39 41 40 38 37 36 35 34 33 32 30 31 29 28 27 26 25 24 21 22 23 12 13 14 15 16 11 10 9 8 17 18 19 20 568 569 570 474 473 472 495 471 469 470 496 497 464 465 466 467 468 571 572 7 6 5 4 3 2 1 0 573 460 463 462 461 459 458 457 456 455 454 438 437 436 435 434 433 432 430 431 429 428 427 426 420 421 422 423 424 425 382 386 387 385 383 384 410 418 419 417 411 412 356 402 401 403 400 404 409 408 407 405 406 399 398 397 394 371 396 395 393 391 392 390 388 389 381 445 444 443 439 442 446 447 448 449 450 441 440 453 452 499 500 501 498 519 518 520 521 522 523 526 525 524 494 493 492 491 490 486 487 535 534 488 489 533 532 531 530 529 528 527 512 511 510 509 513 514 515 516 517 502 503 504 505 307 308 309 310 311 451 312 313 316 314 315 377 378 380 379 376 375 374 373 372 370 369 327 323 322 324 325 326 328 329 366 342 365 367 368 364 363 362 361 360 359 358 357 355 354 353 352 413 414 416 415 351 350 349 348 347 346 345 344 343 341 340 330